c nIsolatedPIs 136
c maxPI 64
p cnf 201 412
c gate 65 2 34 0
2 -65 0
34 -65 0
-2 -34 65 0
c gate 66 1 33 0
1 -66 0
33 -66 0
-1 -33 66 0
c gate 67 -65 -66 0
-65 -67 0
-66 -67 0
65 66 67 0
c gate 68 -3 -35 0
-3 -68 0
-35 -68 0
3 35 68 0
c gate 69 -2 -34 0
-2 -69 0
-34 -69 0
2 34 69 0
c gate 70 -68 -69 0
-68 -70 0
-69 -70 0
68 69 70 0
c gate 71 -67 70 0
-67 -71 0
70 -71 0
67 -70 71 0
c gate 72 4 36 0
4 -72 0
36 -72 0
-4 -36 72 0
c gate 73 3 35 0
3 -73 0
35 -73 0
-3 -35 73 0
c gate 74 -72 -73 0
-72 -74 0
-73 -74 0
72 73 74 0
c gate 75 -71 74 0
-71 -75 0
74 -75 0
71 -74 75 0
c gate 76 -4 -36 0
-4 -76 0
-36 -76 0
4 36 76 0
c gate 77 -5 -37 0
-5 -77 0
-37 -77 0
5 37 77 0
c gate 78 -76 -77 0
-76 -78 0
-77 -78 0
76 77 78 0
c gate 79 -75 78 0
-75 -79 0
78 -79 0
75 -78 79 0
c gate 80 6 38 0
6 -80 0
38 -80 0
-6 -38 80 0
c gate 81 5 37 0
5 -81 0
37 -81 0
-5 -37 81 0
c gate 82 -80 -81 0
-80 -82 0
-81 -82 0
80 81 82 0
c gate 83 -79 82 0
-79 -83 0
82 -83 0
79 -82 83 0
c gate 84 -7 -39 0
-7 -84 0
-39 -84 0
7 39 84 0
c gate 85 -6 -38 0
-6 -85 0
-38 -85 0
6 38 85 0
c gate 86 -84 -85 0
-84 -86 0
-85 -86 0
84 85 86 0
c gate 87 -83 86 0
-83 -87 0
86 -87 0
83 -86 87 0
c gate 88 7 39 0
7 -88 0
39 -88 0
-7 -39 88 0
c gate 89 8 40 0
8 -89 0
40 -89 0
-8 -40 89 0
c gate 90 -88 -89 0
-88 -90 0
-89 -90 0
88 89 90 0
c gate 91 -87 90 0
-87 -91 0
90 -91 0
87 -90 91 0
c gate 92 -9 -41 0
-9 -92 0
-41 -92 0
9 41 92 0
c gate 93 -10 -42 0
-10 -93 0
-42 -93 0
10 42 93 0
c gate 94 -8 -40 0
-8 -94 0
-40 -94 0
8 40 94 0
c gate 95 -93 -94 0
-93 -95 0
-94 -95 0
93 94 95 0
c gate 96 -92 95 0
-92 -96 0
95 -96 0
92 -95 96 0
c gate 97 -91 96 0
-91 -97 0
96 -97 0
91 -96 97 0
c gate 98 9 41 0
9 -98 0
41 -98 0
-9 -41 98 0
c gate 99 10 42 0
10 -99 0
42 -99 0
-10 -42 99 0
c gate 100 -98 -99 0
-98 -100 0
-99 -100 0
98 99 100 0
c gate 101 -97 100 0
-97 -101 0
100 -101 0
97 -100 101 0
c gate 102 -11 -43 0
-11 -102 0
-43 -102 0
11 43 102 0
c gate 103 93 98 0
93 -103 0
98 -103 0
-93 -98 103 0
c gate 104 -102 -103 0
-102 -104 0
-103 -104 0
102 103 104 0
c gate 105 -101 104 0
-101 -105 0
104 -105 0
101 -104 105 0
c gate 106 11 43 0
11 -106 0
43 -106 0
-11 -43 106 0
c gate 107 12 44 0
12 -107 0
44 -107 0
-12 -44 107 0
c gate 108 -106 -107 0
-106 -108 0
-107 -108 0
106 107 108 0
c gate 109 -105 108 0
-105 -109 0
108 -109 0
105 -108 109 0
c gate 110 -15 -47 0
-15 -110 0
-47 -110 0
15 47 110 0
c gate 111 -14 -46 0
-14 -111 0
-46 -111 0
14 46 111 0
c gate 112 -110 -111 0
-110 -112 0
-111 -112 0
110 111 112 0
c gate 113 -12 -44 0
-12 -113 0
-44 -113 0
12 44 113 0
c gate 114 -13 -45 0
-13 -114 0
-45 -114 0
13 45 114 0
c gate 115 -113 -114 0
-113 -115 0
-114 -115 0
113 114 115 0
c gate 116 112 115 0
112 -116 0
115 -116 0
-112 -115 116 0
c gate 117 -109 116 0
-109 -117 0
116 -117 0
109 -116 117 0
c gate 118 13 45 0
13 -118 0
45 -118 0
-13 -45 118 0
c gate 119 14 46 0
14 -119 0
46 -119 0
-14 -46 119 0
c gate 120 -118 -119 0
-118 -120 0
-119 -120 0
118 119 120 0
c gate 121 112 -120 0
112 -121 0
-120 -121 0
-112 120 121 0
c gate 122 16 48 0
16 -122 0
48 -122 0
-16 -48 122 0
c gate 123 15 47 0
15 -123 0
47 -123 0
-15 -47 123 0
c gate 124 -122 -123 0
-122 -124 0
-123 -124 0
122 123 124 0
c gate 125 -121 124 0
-121 -125 0
124 -125 0
121 -124 125 0
c gate 126 -117 125 0
-117 -126 0
125 -126 0
117 -125 126 0
c gate 127 -32 -64 0
-32 -127 0
-64 -127 0
32 64 127 0
c gate 128 31 63 0
31 -128 0
63 -128 0
-31 -63 128 0
c gate 129 -30 -62 0
-30 -129 0
-62 -129 0
30 62 129 0
c gate 130 -31 -63 0
-31 -130 0
-63 -130 0
31 63 130 0
c gate 131 -129 -130 0
-129 -131 0
-130 -131 0
129 130 131 0
c gate 132 29 61 0
29 -132 0
61 -132 0
-29 -61 132 0
c gate 133 30 62 0
30 -133 0
62 -133 0
-30 -62 133 0
c gate 134 -132 -133 0
-132 -134 0
-133 -134 0
132 133 134 0
c gate 135 -26 -58 0
-26 -135 0
-58 -135 0
26 58 135 0
c gate 136 -27 -59 0
-27 -136 0
-59 -136 0
27 59 136 0
c gate 137 -135 -136 0
-135 -137 0
-136 -137 0
135 136 137 0
c gate 138 25 57 0
25 -138 0
57 -138 0
-25 -57 138 0
c gate 139 26 58 0
26 -139 0
58 -139 0
-26 -58 139 0
c gate 140 -138 -139 0
-138 -140 0
-139 -140 0
138 139 140 0
c gate 141 137 -140 0
137 -141 0
-140 -141 0
-137 140 141 0
c gate 142 27 59 0
27 -142 0
59 -142 0
-27 -59 142 0
c gate 143 28 60 0
28 -143 0
60 -143 0
-28 -60 143 0
c gate 144 -142 -143 0
-142 -144 0
-143 -144 0
142 143 144 0
c gate 145 -141 144 0
-141 -145 0
144 -145 0
141 -144 145 0
c gate 146 -28 -60 0
-28 -146 0
-60 -146 0
28 60 146 0
c gate 147 -29 -61 0
-29 -147 0
-61 -147 0
29 61 147 0
c gate 148 -146 -147 0
-146 -148 0
-147 -148 0
146 147 148 0
c gate 149 -145 148 0
-145 -149 0
148 -149 0
145 -148 149 0
c gate 150 134 -149 0
134 -150 0
-149 -150 0
-134 149 150 0
c gate 151 131 -150 0
131 -151 0
-150 -151 0
-131 150 151 0
c gate 152 -128 -151 0
-128 -152 0
-151 -152 0
128 151 152 0
c gate 153 -127 -152 0
-127 -153 0
-152 -153 0
127 152 153 0
c gate 154 -21 -53 0
-21 -154 0
-53 -154 0
21 53 154 0
c gate 155 -18 -50 0
-18 -155 0
-50 -155 0
18 50 155 0
c gate 156 -154 -155 0
-154 -156 0
-155 -156 0
154 155 156 0
c gate 157 17 49 0
17 -157 0
49 -157 0
-17 -49 157 0
c gate 158 18 50 0
18 -158 0
50 -158 0
-18 -50 158 0
c gate 159 -157 -158 0
-157 -159 0
-158 -159 0
157 158 159 0
c gate 160 156 -159 0
156 -160 0
-159 -160 0
-156 159 160 0
c gate 161 -19 -51 0
-19 -161 0
-51 -161 0
19 51 161 0
c gate 162 22 54 0
22 -162 0
54 -162 0
-22 -54 162 0
c gate 163 19 51 0
19 -163 0
51 -163 0
-19 -51 163 0
c gate 164 -162 -163 0
-162 -164 0
-163 -164 0
162 163 164 0
c gate 165 -161 164 0
-161 -165 0
164 -165 0
161 -164 165 0
c gate 166 20 52 0
20 -166 0
52 -166 0
-20 -52 166 0
c gate 167 -20 -52 0
-20 -167 0
-52 -167 0
20 52 167 0
c gate 168 -166 -167 0
-166 -168 0
-167 -168 0
166 167 168 0
c gate 169 -16 -48 0
-16 -169 0
-48 -169 0
16 48 169 0
c gate 170 -17 -49 0
-17 -170 0
-49 -170 0
17 49 170 0
c gate 171 -169 -170 0
-169 -171 0
-170 -171 0
169 170 171 0
c gate 172 168 171 0
168 -172 0
171 -172 0
-168 -171 172 0
c gate 173 165 172 0
165 -173 0
172 -173 0
-165 -172 173 0
c gate 174 -160 173 0
-160 -174 0
173 -174 0
160 -173 174 0
c gate 175 23 -55 0
23 -175 0
-55 -175 0
-23 55 175 0
c gate 176 -23 55 0
-23 -176 0
55 -176 0
23 -55 176 0
c gate 177 -175 -176 0
-175 -177 0
-176 -177 0
175 176 177 0
c gate 178 137 -177 0
137 -178 0
-177 -178 0
-137 177 178 0
c gate 179 131 134 0
131 -179 0
134 -179 0
-131 -134 179 0
c gate 180 178 179 0
178 -180 0
179 -180 0
-178 -179 180 0
c gate 181 32 64 0
32 -181 0
64 -181 0
-32 -64 181 0
c gate 182 -128 -181 0
-128 -182 0
-181 -182 0
128 181 182 0
c gate 183 -25 -57 0
-25 -183 0
-57 -183 0
25 57 183 0
c gate 184 -127 -183 0
-127 -184 0
-183 -184 0
127 183 184 0
c gate 185 182 184 0
182 -185 0
184 -185 0
-182 -184 185 0
c gate 186 -24 -56 0
-24 -186 0
-56 -186 0
24 56 186 0
c gate 187 -22 -54 0
-22 -187 0
-54 -187 0
22 54 187 0
c gate 188 -186 -187 0
-186 -188 0
-187 -188 0
186 187 188 0
c gate 189 24 56 0
24 -189 0
56 -189 0
-24 -56 189 0
c gate 190 21 53 0
21 -190 0
53 -190 0
-21 -53 190 0
c gate 191 -189 -190 0
-189 -191 0
-190 -191 0
189 190 191 0
c gate 192 188 191 0
188 -192 0
191 -192 0
-188 -191 192 0
c gate 193 185 192 0
185 -193 0
192 -193 0
-185 -192 193 0
c gate 194 180 193 0
180 -194 0
193 -194 0
-180 -193 194 0
c gate 195 148 156 0
148 -195 0
156 -195 0
-148 -156 195 0
c gate 196 159 195 0
159 -196 0
195 -196 0
-159 -195 196 0
c gate 197 145 196 0
145 -197 0
196 -197 0
-145 -196 197 0
c gate 198 194 197 0
194 -198 0
197 -198 0
-194 -197 198 0
c gate 199 174 198 0
174 -199 0
198 -199 0
-174 -198 199 0
c gate 200 -153 199 0
-153 -200 0
199 -200 0
153 -199 200 0
c gate 201 -126 200 0
-126 -201 0
200 -201 0
126 -200 201 0
c PO
201 0
